CPXPARAM_Read_DataCheck                          1
Found incumbent of value 0.000000 after 0.00 sec. (0.26 ticks)
Tried aggregator 1 time.
MIP Presolve modified 1 coefficients.
Reduced MIP has 2017 rows, 10005 columns, and 50017 nonzeros.
Reduced MIP has 10005 binaries, 0 generals, 0 SOSs, and 0 indicators.
Presolve time = 0.02 sec. (21.75 ticks)
Probing time = 0.02 sec. (8.70 ticks)
Tried aggregator 1 time.
Reduced MIP has 2017 rows, 10005 columns, and 50017 nonzeros.
Reduced MIP has 10005 binaries, 0 generals, 0 SOSs, and 0 indicators.
Presolve time = 0.03 sec. (25.89 ticks)
Probing time = 0.02 sec. (8.33 ticks)
Clique table members: 32064.
MIP emphasis: balance optimality and feasibility.
MIP search method: dynamic search.
Parallel mode: deterministic, using up to 4 threads.
Root relaxation solution time = 0.13 sec. (161.85 ticks)

        Nodes                                         Cuts/
   Node  Left     Objective  IInf  Best Integer    Best Bound    ItCnt     Gap

*     0+    0                            0.0000    61978.0000              --- 
*     0+    0                         8353.0000    61978.0000           641.98%
*     0+    0                         9124.0000    61978.0000           579.29%
*     0+    0                         9367.0000    61978.0000           561.66%
      0     0    21612.2780     7     9367.0000    21612.2780     2722  130.73%
*     0+    0                        13549.0000    21612.2780            59.51%
      0     0    19111.3691    80    13549.0000     Cuts: 604     3439   36.63%
*     0+    0                        14399.0000    18511.6525            28.56%
      0     0        cutoff          14399.0000    14399.0000     3877    0.00%
Elapsed time = 2.44 sec. (1231.12 ticks, tree = 0.01 MB, solutions = 6)

Clique cuts applied:  769
Cover cuts applied:  1
Implied bound cuts applied:  4
Mixed integer rounding cuts applied:  4
Zero-half cuts applied:  2

Root node processing (before b&c):
  Real time             =    2.44 sec. (1232.06 ticks)
Parallel b&c, 4 threads:
  Real time             =    0.00 sec. (0.00 ticks)
  Sync time (average)   =    0.00 sec.
  Wait time (average)   =    0.00 sec.
                          ------------
Total (root+branch&cut) =    2.44 sec. (1232.06 ticks)
